Pt  H                                   
   1.00000000000000     
     2.7718585822512662    0.0000000000000000    0.0000000000000000
     1.3859292911256331    2.4004999479275142    0.0000000000000000
     0.0000000000000000    0.0000000000000000   24.5264261104466641
   Pt   H 
     3     1
Selective dynamics
Direct
  0.3333333333333357  0.3333333333333357  0.4077234879214870   F   F   F
  0.6666666666666643  0.6666666666666643  0.5000000000000000   F   F   F
  0.9999999998252860  0.0000000178917552  0.5858167208519430   T   T   T
  0.9999999619328127  0.9999999630170188  0.6591102221189261   T   T   T
 
  0.00000000E+00  0.00000000E+00  0.00000000E+00
  0.00000000E+00  0.00000000E+00  0.00000000E+00
  0.00000000E+00  0.00000000E+00  0.00000000E+00
  0.00000000E+00  0.00000000E+00  0.00000000E+00
