Pt  H 
 1.0000000000000000
     2.7718585822512662    0.0000000000000000    0.0000000000000000
     1.3859292911256331    2.4004999479275142    0.0000000000000000
     0.0000000000000000    0.0000000000000000   24.5264261104466641
 Pt  H  
   3   1
Selective dynamics
Cartesian
  1.3859292911256429  0.8001666493091771  9.9999999999999432   F   F   F
  2.7718585822512565  1.6003332986183372 12.2632130552233320   F   F   F
 -0.0000004066587176 -0.0000002377630601 14.4272866670797555   T   T   T
  0.0000000000000000  0.0000000000000000 16.1272866670797548   T   T   T
