Pt 
 1.0000000000000000
     2.7718585822512662    0.0000000000000000    0.0000000000000000
     1.3859292911256331    2.4004999479275142    0.0000000000000000
     0.0000000000000000    0.0000000000000000   24.5264261104466641
 Pt 
   3
Selective dynamics
Cartesian
  1.3859292911256331  0.8001666493091714 10.0000000000000000   F   F   F
 -0.0000000000000000  1.6003332986183427 12.2632130552233320   F   F   F
  0.0000000000000000  0.0000000000000000 14.5264261104466659   T   T   T
