SYSTEM =Sys
ENCUT =500
NSW =100
ISIF = 2
IBRION =2
POTIM =1.0
ISTART = 1
ICHARG = 1
ISPIN = 2
EDIFF = 1.0E-5
PREC = high
ISYM = 0
ISMEAR = 0
SIGMA = 0.1
EDIFFG = -0.02
IVDW = 11
NCORE = 12
EMIN = -20
EMAX = 20
NEDOS = 3000
LORBIT = 11
