 H 
 1.0000000000000000
    10.0000000000000000    0.0000000000000000    0.0000000000000000
     0.0000000000000000   10.0000000000000000    0.0000000000000000
     0.0000000000000000    0.0000000000000000   10.0000000000000000
 H  
   2
Cartesian
  4.7000000000000002  5.0000000000000000  5.0000000000000000
  5.2999999999999998  5.0000000000000000  5.0000000000000000
