SYSTEM =Sys
ENCUT = 400
NSW = 100
ISIF = 2
IBRION = 2
ISTART = 1
ICHARG = 1
ISPIN = 2
EDIFF = 1.0E-6
EDIFFG = -0.01
ISMEAR = -5
SIGMA = 0.1
NCORE = 12
EMIN = -20
EMAX = 20
NEDOS = 3000
LORBIT = 11
